NAME : pcb442
COMMENT : Drilling problem (Groetschel/Juenger/Reinelt)
TYPE : TSP
DIMENSION : 442
EDGE_WEIGHT_TYPE : EUC_2D
NODE_COORD_SECTION
1   200.000 400.000
2   200.000 500.000
3   200.000 600.000
4   200.000 700.000
5   200.000 800.000
6   200.000 900.000
7   200.000 1000.000
8   200.000 1100.000
9   200.000 1200.000
10  200.000 1300.000
11  200.000 1400.000
12  200.000 1500.000
13  200.000 1600.000
14  200.000 1700.000
15  200.000 1800.000
16  200.000 1900.000
17  200.000 2000.000
18  200.000 2100.000
19  200.000 2200.000
20  200.000 2300.000
21  200.000 2400.000
22  200.000 2500.000
23  200.000 2600.000
24  200.000 2700.000
25  200.000 2800.000
26  200.000 2900.000
27  200.000 3000.000
28  200.000 3100.000
29  200.000 3200.000
30  200.000 3300.000
31  200.000 3400.000
32  200.000 3500.000
33  200.000 3600.000
34  300.000 400.000
35  300.000 500.000
36  300.000 600.000
37  300.000 700.000
38  300.000 800.000
39  300.000 900.000
40  300.000 1000.000
41  300.000 1100.000
42  300.000 1200.000
43  300.000 1300.000
44  300.000 1400.000
45  300.000 1500.000
46  300.000 1600.000
47  300.000 1700.000
48  300.000 1800.000
49  300.000 1900.000
50  300.000 2000.000
51  300.000 2100.000
52  300.000 2200.000
53  300.000 2300.000
54  300.000 2400.000
55  300.000 2500.000
56  300.000 2600.000
57  300.000 2700.000
58  300.000 2800.000
59  300.000 2900.000
60  300.000 3000.000
61  300.000 3100.000
62  300.000 3200.000
63  300.000 3300.000
64  300.000 3400.000
65  300.000 3500.000
66  400.000 400.000
67  400.000 500.000
68  400.000 600.000
69  400.000 700.000
70  400.000 800.000
71  400.000 900.000
72  400.000 1000.000
73  400.000 1100.000
74  400.000 1200.000
75  400.000 1300.000
76  400.000 1400.000
77  400.000 1500.000
78  400.000 1600.000
79  400.000 1700.000
80  400.000 1800.000
81  400.000 1900.000
82  400.000 2000.000
83  400.000 2100.000
84  400.000 2200.000
85  400.000 2300.000
86  400.000 2400.000
87  400.000 2500.000
88  400.000 2600.000
89  400.000 2700.000
90  400.000 2800.000
91  400.000 2900.000
92  400.000 3000.000
93  400.000 3100.000
94  400.000 3200.000
95  400.000 3300.000
96  400.000 3400.000
97  400.000 3500.000
98  400.000 3600.000
99  500.000 1500.000
100 500.000 1829.000
101 500.000 3100.000
102 600.000 400.000
103 700.000 300.000
104 700.000 600.000
105 700.000 1500.000
106 700.000 1600.000
107 700.000 1800.000
108 700.000 2100.000
109 700.000 2400.000
110 700.000 2700.000
111 700.000 3000.000
112 700.000 3300.000
113 700.000 3600.000
114 800.000 300.000
115 800.000 600.000
116 800.000 1030.000
117 800.000 1500.000
118 800.000 1800.000
119 800.000 2100.000
120 800.000 2400.000
121 800.000 2600.000
122 800.000 2700.000
123 800.000 3000.000
124 800.000 3300.000
125 800.000 3600.000
126 900.000 300.000
127 900.000 600.000
128 900.000 1500.000
129 900.000 1800.000
130 900.000 2100.000
131 900.000 2400.000
132 900.000 2700.000
133 900.000 3000.000
134 900.000 3300.000
135 900.000 3600.000
136 1000.000 300.000
137 1000.000 600.000
138 1000.000 1100.000
139 1000.000 1500.000
140 1000.000 1629.000
141 1000.000 1800.000
142 1000.000 2100.000
143 1000.000 2400.000
144 1000.000 2600.000
145 1000.000 2700.000
146 1000.000 3000.000
147 1000.000 3300.000
148 1000.000 3600.000
149 1100.000 300.000
150 1100.000 600.000
151 1100.000 700.000
152 1100.000 900.000
153 1100.000 1500.000
154 1100.000 1800.000
155 1100.000 2100.000
156 1100.000 2400.000
157 1100.000 2700.000
158 1100.000 3000.000
159 1100.000 3300.000
160 1100.000 3600.000
161 1200.000 300.000
162 1200.000 600.000
163 1200.000 1500.000
164 1200.000 1700.000
165 1200.000 1800.000
166 1200.000 2100.000
167 1200.000 2400.000
168 1200.000 2700.000
169 1200.000 3000.000
170 1200.000 3300.000
171 1200.00 3600.00
172 1300.00 300.00
173 1300.00 600.00
174 1300.00 700.00
175 1300.00 1130.00
176 1300.00 1500.00
177 1300.00 1800.00
178 1300.00 2100.00
179 1300.00 2200.00
180 1300.00 2400.00
181 1300.00 2700.00
182 1300.00 3000.00
183 1300.00 3300.00
184 1300.00 3600.00
185 1400.00 300.00
186 1400.00 600.00
187 1400.00 930.00
188 1400.00 1500.00
189 1400.00 1800.00
190 1400.00 2000.00
191 1400.00 2100.00
192 1400.00 2400.00
193 1400.00 2500.00
194 1400.00 2700.00
195 1400.00 2820.00
196 1400.00 2900.00
197 1400.00 3000.00
198 1400.00 3300.00
199 1400.00 3600.00
200 1500.00 1500.00
201 1500.00 1800.00
202 1500.00 1900.00
203 1500.00 2100.00
204 1500.00 2400.00
205 1500.00 2700.00
206 1500.00 2800.00
207 1500.00 2860.00
208 1500.00 3000.00
209 1500.00 3300.00
210 1500.00 3600.00
211 1600.00 1100.00
212 1600.00 1300.00
213 1600.00 1500.00
214 1600.00 1800.00
215 1600.00 2100.00
216 1600.00 2400.00
217 1600.00 2700.00
218 1600.00 3000.00
219 1600.00 3300.00
220 1600.00 3600.00
221 1700.00 1200.00
222 1700.00 1500.00
223 1700.00 1800.00
224 1700.00 2100.00
225 1700.00 2400.00
226 1700.00 3600.00
227 1800.00 300.00
228 1800.00 600.00
229 1800.00 1230.00
230 1800.00 1500.00
231 1800.00 1800.00
232 1800.00 2100.00
233 1800.00 2400.00
234 1900.00 300.00
235 1900.00 600.00
236 1900.00 3000.00
237 1900.00 3520.00
238 2000.00 300.00
239 2000.00 370.00
240 2000.00 600.00
241 2000.00 800.00
242 2000.00 900.00
243 2000.00 1000.00
244 2000.00 1100.00
245 2000.00 1200.00
246 2000.00 1300.00
247 2000.00 1400.00
248 2000.00 1500.00
249 2000.00 1600.00
250 2000.00 1700.00
251 2000.00 1800.00
252 2000.00 1900.00
253 2000.00 2000.00
254 2000.00 2100.00
255 2000.00 2200.00
256 2000.00 2300.00
257 2000.00 2400.00
258 2000.00 2500.00
259 2000.00 2600.00
260 2000.00 2700.00
261 2000.00 2800.00
262 2000.00 2900.00
263 2000.00 3000.00
264 2000.00 3100.00
265 2000.00 3500.00
266 2100.00 300.00
267 2100.00 600.00
268 2100.00 3200.00
269 2200.00 300.00
270 2200.00 469.00
271 2200.00 600.00
272 2200.00 3200.00
273 2300.00 300.00
274 2300.00 600.00
275 2300.00 3400.00
276 2400.00 300.00
277 2400.00 600.00
278 2400.00 2100.00
279 2500.00 300.00
280 2500.00 800.00
281 2600.00 400.00
282 2600.00 500.00
283 2600.00 800.00
284 2600.00 900.00
285 2600.00 1000.00
286 2600.00 1100.00
287 2600.00 1200.00
288 2600.00 1300.00
289 2600.00 1400.00
290 2600.00 1500.00
291 2600.00 1600.00
292 2600.00 1700.00
293 2600.00 1800.00
294 2600.00 1900.00
295 2600.00 2000.00
296 2600.00 2100.00
297 2600.00 2200.00
298 2600.00 2300.00
299 2600.00 2400.00
300 2600.00 2500.00
301 2600.00 2600.00
302 2600.00 2700.00
303 2600.00 2800.00
304 2600.00 2900.00
305 2600.00 3000.00
306 2600.00 3100.00
307 2600.00 3400.00
308 2700.00 700.00
309 2700.00 800.00
310 2700.00 900.00
311 2700.00 1000.00
312 2700.00 1100.00
313 2700.00 1200.00
314 2700.00 1300.00
315 2700.00 1400.00
316 2700.00 1500.00
317 2700.00 1600.00
318 2700.00 1700.00
319 2700.00 1800.00
320 2700.00 1900.00
321 2700.00 2000.00
322 2700.00 2100.00
323 2700.00 2200.00
324 2700.00 2300.00
325 2700.00 2500.00
326 2700.00 2600.00
327 2700.00 2700.00
328 2700.00 2800.00
329 2700.00 2900.00
330 2700.00 3000.00
331 2700.00 3100.00
332 2700.00 3200.00
333 2700.00 3300.00
334 2700.00 3400.00
335 2700.00 3500.00
336 2700.00 3600.00
337 2700.00 3700.00
338 2700.00 3800.00
339 2800.00 900.00
340 2800.00 1130.00
341 2900.00 400.00
342 2900.00 500.00
343 2900.00 1400.00
344 2900.00 2400.00
345 2900.00 3000.00
346 3000.00 700.00
347 3000.00 800.00
348 3000.00 900.00
349 3000.00 1000.00
350 3000.00 1100.00
351 3000.00 1200.00
352 3000.00 1300.00
353 3000.00 1500.00
354 3000.00 1600.00
355 3000.00 1700.00
356 3000.00 1800.00
357 3000.00 1900.00
358 3000.00 2000.00
359 3000.00 2100.00
360 3000.00 2200.00
361 3000.00 2300.00
362 3000.00 2500.00
363 3000.00 2600.00
364 3000.00 2700.00
365 3000.00 2800.00
366 3000.00 2900.00
367 3000.00 3000.00
368 3000.00 3100.00
369 3000.00 3200.00
370 3000.00 3300.00
371 3000.00 3400.00
372 3000.00 3500.00
373 3000.00 3600.00
374 3000.00 3700.00
375 3000.00 3800.00
376 150.00 3500.00
377 150.00 3550.00
378 469.00 2550.00
379 469.00 3350.00
380 469.00 3450.00
381 540.00 2330.00
382 540.00 2430.00
383 620.00 3650.00
384 620.00 3709.00
385 750.00 2550.00
386 850.00 520.00
387 850.00 700.00
388 850.00 2280.00
389 939.00 740.00
390 950.00 2220.00
391 910.00 2600.00
392 1050.00 1050.00
393 1150.00 1350.00
394 1170.00 2280.00
395 1220.00 2210.00
396 1350.00 750.00
397 1350.00 1700.00
398 1350.00 2140.00
399 1450.00 770.00
400 1550.00 300.00
401 1550.00 500.00
402 1550.00 1850.00
403 1650.00 1050.00
404 1690.00 2680.00
405 1710.00 310.00
406 1710.00 510.00
407 1750.00 750.00
408 1790.00 2580.00
409 1720.00 2610.00
410 1790.00 3330.00
411 1720.00 3409.00
412 1829.00 2700.00
413 1829.00 2800.00
414 1829.00 3450.00
415 2060.00 1650.00
416 2050.00 3150.00
417 2170.00 1900.00
418 2110.00 2000.00
419 2120.00 2750.00
420 2150.00 3250.00
421 2290.00 1400.00
422 2220.00 2820.00
423 2280.00 3250.00
424 2390.00 1300.00
425 2320.00 1500.00
426 2450.00 710.00
427 2620.00 3650.00
428 2750.00 520.00
429 2760.00 2360.00
430 2850.00 2200.00
431 2850.00 2700.00
432 2850.00 3350.00
433 2930.00 950.00
434 2950.00 1750.00
435 2950.00 2050.00
436 520.00 3200.00
437 2300.00 3500.00
438 2320.00 3150.00
439 530.00 2100.00
440 2550.00 710.00
441 750.00 490.00
442 0.00 0.00
EOF
